
# LAMMPS input script for water simulation
units real
atom_style full

read_data water.data

pair_style lj/cut/coul/long 10.0
pair_coeff * * 0.0 0.0
pair_coeff 1 1 0.1553 3.166  # O-O
kspace_style pppm 1.0e-5

bond_style harmonic
bond_coeff 1 450.0 0.9572

angle_style harmonic
angle_coeff 1 55.0 104.52

fix 1 all nve
fix 2 all temp/csvr 300.0 300.0 100.0 54324

timestep 1.0
thermo 100
dump 1 all custom 100 traj.lammpstrj id type x y z

run 10000
